InboundTrucks  = 12;
OutboundTrucks = 8;
InboundDoors   = 2;
OutboundDoors  = 1;
ReleaseTime    = [4,1,4,2,0,5,2,1,3,5,5,4];
UnloadTime     = [7,6,9,12,8,13,11,11,15,7,10,9];
LoadTime       = [12,6,11,6,13,15,12,14];
TransferTime   = [| 2,6,6,5,4,4,6,2 | 6,8,8,4,5,5,3,7 | 4,5,2,5,2,6,2,2 | 3,8,5,5,8,4,4,5 | 6,3,2,7,3,6,4,5 | 2,5,4,6,7,2,8,3 | 2,5,7,8,8,2,8,4 | 8,7,8,2,7,4,4,8 | 7,6,6,8,3,8,5,8 | 6,8,6,3,3,3,7,3 | 7,5,4,4,5,7,3,5 | 8,4,2,5,2,6,6,7 |];
